g3 0 1 0	# problem d5n8R4R6d01d1
 8 9 1 0 4	# vars, constraints, objectives, ranges, eqns
 4 1	# nonlinear constraints, objectives
 0 0	# network constraints: nonlinear, linear
 8 8 8	# nonlinear vars in constraints, objectives, both
 0 0 0 1	# linear network variables; functions; arith, flags
 0 0 0 0 0	# discrete variables: binary, integer, nonlinear (b,c,o)
 72 8	# nonzeros in Jacobian, gradients
 0 0	# max name lengths: constraints, variables
 0 0 0 0 0	# common exprs: b,c,o,c1,o1
b
0 0.75 2.62
0 0.02 2.65
0 0.18 2.06
0 0.45 2.3
0 0.84 2.87
0 0.75 2.92
0 0.28 2.1
0 0.15 2.21
r
2 64.192
2 310.016
2 728.212
2 3033.39
4 18.453
4 36.445
4 39.995
4 80.36
2 53.207
C0
o0
o2
o2
n3.56
v1
v5
o2
o2
n5.16
v3
v3
C1
o54
19
o2
o2
n0.43
v1
v5
o2
o2
n4.98
v3
v3
o2
o2
o2
n9.11
v0
v0
v2
o2
o2
o2
n5.47
v0
v1
v7
o2
o2
o2
n5.29
v0
v3
v3
o2
o2
o2
n0.6
v0
v6
v7
o2
o2
o2
n8.88
v1
v1
v3
o2
o2
o2
n3.78
v1
v1
v4
o2
o2
o2
n8.44
v1
v6
v6
o2
o2
o2
n4.63
v2
v2
v6
o2
o2
o2
n3.3
v2
v4
v4
o2
o2
o2
n0.32
v3
v3
v5
o2
o2
o2
n7.5
v3
v3
v7
o2
o2
o2
n3.85
v3
v4
v5
o2
o2
o2
n7.26
v3
v5
v5
o2
o2
o2
n3.51
v3
v7
v7
o2
o2
o2
n8.43
v4
v5
v7
o2
o2
o2
n2.52
v4
v7
v7
o2
o2
o2
n5.49
v7
v7
v7
C2
o54
47
o2
o2
n6.88
v1
v5
o2
o2
n5.33
v3
v3
o2
o2
o2
n6.41
v0
v0
v2
o2
o2
o2
n7.11
v0
v1
v7
o16
o2
o2
o2
n6.45
v0
v3
v3
o2
o2
o2
n2.31
v0
v6
v7
o2
o2
o2
n7.33
v1
v1
v3
o2
o2
o2
n5.65
v1
v1
v4
o2
o2
o2
n8.99
v1
v6
v6
o2
o2
o2
n5.84
v2
v2
v6
o2
o2
o2
n0.9
v2
v4
v4
o16
o2
o2
o2
n6.42
v3
v3
v5
o2
o2
o2
n1.65
v3
v3
v7
o2
o2
o2
n5.33
v3
v4
v5
o2
o2
o2
n7.58
v3
v5
v5
o2
o2
o2
n4.77
v3
v7
v7
o2
o2
o2
n4.38
v4
v5
v7
o2
o2
o2
n8.02
v4
v7
v7
o2
o2
o2
n0.71
v7
v7
v7
o2
o2
o2
o2
n4.72
v0
v0
v6
v6
o2
o2
o2
o2
n7.97
v0
v1
v5
v6
o2
o2
o2
o2
n1.06
v0
v2
v2
v7
o2
o2
o2
o2
n5.2
v0
v2
v6
v6
o2
o2
o2
o2
n6.71
v0
v3
v3
v4
o2
o2
o2
o2
n3.29
v0
v3
v3
v7
o2
o2
o2
o2
n4.78
v0
v3
v5
v5
o2
o2
o2
o2
n7.38
v0
v4
v5
v5
o16
o2
o2
o2
o2
n6.53
v0
v5
v5
v5
o2
o2
o2
o2
n1.78
v0
v5
v6
v6
o2
o2
o2
o2
n7.32
v1
v1
v4
v6
o2
o2
o2
o2
n6.13
v1
v2
v2
v5
o2
o2
o2
o2
n5.47
v1
v3
v3
v5
o2
o2
o2
o2
n7.24
v1
v3
v6
v6
o2
o2
o2
o2
n0.41
v1
v3
v7
v7
o2
o2
o2
o2
n5.29
v2
v3
v4
v7
o16
o2
o2
o2
o2
n1.85
v2
v3
v7
v7
o2
o2
o2
o2
n8.82
v2
v4
v4
v4
o2
o2
o2
o2
n6.47
v2
v6
v7
v7
o2
o2
o2
o2
n7.25
v3
v3
v3
v5
o16
o2
o2
o2
o2
n3.65
v3
v3
v3
v6
o16
o2
o2
o2
o2
n5.27
v3
v4
v4
v4
o2
o2
o2
o2
n6.9
v3
v4
v6
v6
o2
o2
o2
o2
n7.89
v4
v5
v5
v6
o2
o2
o2
o2
n2.46
v4
v5
v6
v7
o2
o2
o2
o2
n0.48
v4
v5
v7
v7
o2
o2
o2
o2
n1.67
v4
v6
v6
v6
o2
o2
o2
o2
n2.66
v5
v5
v5
v5
C3
o54
128
o2
o2
n9.22
v1
v5
o2
o2
n4.84
v3
v3
o2
o2
o2
n6.24
v0
v0
v2
o2
o2
o2
n3.92
v0
v1
v7
o2
o2
o2
n2.68
v0
v3
v3
o2
o2
o2
n8.98
v0
v6
v7
o2
o2
o2
n4.38
v1
v1
v3
o2
o2
o2
n6.22
v1
v1
v4
o2
o2
o2
n1.13
v1
v6
v6
o2
o2
o2
n8.3
v2
v2
v6
o16
o2
o2
o2
n7.68
v2
v4
v4
o2
o2
o2
n5.93
v3
v3
v5
o2
o2
o2
n0.75
v3
v3
v7
o16
o2
o2
o2
n3.07
v3
v4
v5
o2
o2
o2
n8.48
v3
v5
v5
o2
o2
o2
n4.85
v3
v7
v7
o2
o2
o2
n4
v4
v5
v7
o2
o2
o2
n2.21
v4
v7
v7
o16
o2
o2
o2
n9.67
v7
v7
v7
o2
o2
o2
o2
n2.29
v0
v0
v6
v6
o2
o2
o2
o2
n3.49
v0
v1
v5
v6
o2
o2
o2
o2
n8.81
v0
v2
v2
v7
o2
o2
o2
o2
n4.28
v0
v2
v6
v6
o2
o2
o2
o2
n1.21
v0
v3
v3
v4
o2
o2
o2
o2
n7.24
v0
v3
v3
v7
o2
o2
o2
o2
n6.93
v0
v3
v5
v5
o2
o2
o2
o2
n6.3
v0
v4
v5
v5
o16
o2
o2
o2
o2
n5.62
v0
v5
v5
v5
o2
o2
o2
o2
n5.08
v0
v5
v6
v6
o2
o2
o2
o2
n9.56
v1
v1
v4
v6
o2
o2
o2
o2
n2.72
v1
v2
v2
v5
o2
o2
o2
o2
n9.18
v1
v3
v3
v5
o2
o2
o2
o2
n6.38
v1
v3
v6
v6
o2
o2
o2
o2
n7.88
v1
v3
v7
v7
o16
o2
o2
o2
o2
n6.87
v2
v3
v4
v7
o2
o2
o2
o2
n5.12
v2
v3
v7
v7
o2
o2
o2
o2
n8.96
v2
v4
v4
v4
o2
o2
o2
o2
n1.82
v2
v6
v7
v7
o2
o2
o2
o2
n3
v3
v3
v3
v5
o2
o2
o2
o2
n7.34
v3
v3
v3
v6
o16
o2
o2
o2
o2
n9.32
v3
v4
v4
v4
o16
o2
o2
o2
o2
n1.74
v3
v4
v6
v6
o2
o2
o2
o2
n2.09
v4
v5
v5
v6
o2
o2
o2
o2
n2.81
v4
v5
v6
v7
o2
o2
o2
o2
n4.06
v4
v5
v7
v7
o2
o2
o2
o2
n1.51
v4
v6
v6
v6
o16
o2
o2
o2
o2
n8.9
v5
v5
v5
v5
o2
o2
o2
o2
o2
n5.22
v0
v0
v0
v3
v5
o2
o2
o2
o2
o2
n2.57
v0
v0
v0
v6
v7
o2
o2
o2
o2
o2
n2.71
v0
v0
v1
v1
v1
o2
o2
o2
o2
o2
n0.34
v0
v0
v1
v1
v3
o16
o2
o2
o2
o2
o2
n9.83
v0
v0
v1
v3
v5
o2
o2
o2
o2
o2
n1.02
v0
v0
v2
v2
v2
o2
o2
o2
o2
o2
n0.17
v0
v0
v2
v2
v7
o2
o2
o2
o2
o2
n4.99
v0
v0
v2
v3
v7
o2
o2
o2
o2
o2
n9.6
v0
v0
v2
v4
v6
o2
o2
o2
o2
o2
n7.5
v0
v0
v3
v4
v7
o2
o2
o2
o2
o2
n8.74
v0
v0
v3
v6
v7
o2
o2
o2
o2
o2
n3.94
v0
v0
v4
v5
v6
o2
o2
o2
o2
o2
n2.61
v0
v1
v1
v2
v3
o2
o2
o2
o2
o2
n8.5
v0
v1
v1
v2
v5
o2
o2
o2
o2
o2
n1.25
v0
v1
v2
v6
v7
o2
o2
o2
o2
o2
n2.88
v0
v1
v2
v7
v7
o16
o2
o2
o2
o2
o2
n0.66
v0
v1
v3
v5
v6
o2
o2
o2
o2
o2
n6.59
v0
v1
v3
v7
v7
o2
o2
o2
o2
o2
n7.83
v0
v1
v4
v5
v7
o2
o2
o2
o2
o2
n5.38
v0
v1
v5
v6
v6
o2
o2
o2
o2
o2
n9.18
v0
v1
v5
v6
v7
o2
o2
o2
o2
o2
n9.37
v0
v1
v7
v7
v7
o2
o2
o2
o2
o2
n6.34
v0
v2
v2
v5
v6
o2
o2
o2
o2
o2
n7.49
v0
v2
v3
v7
v7
o2
o2
o2
o2
o2
n8.33
v0
v2
v4
v6
v7
o2
o2
o2
o2
o2
n9.69
v0
v3
v3
v4
v4
o2
o2
o2
o2
o2
n4.22
v0
v3
v5
v6
v7
o2
o2
o2
o2
o2
n3.57
v0
v3
v7
v7
v7
o2
o2
o2
o2
o2
n5.4
v0
v4
v4
v7
v7
o2
o2
o2
o2
o2
n7.02
v0
v5
v6
v6
v6
o2
o2
o2
o2
o2
n1.42
v0
v5
v6
v7
v7
o2
o2
o2
o2
o2
n3.31
v0
v6
v6
v6
v7
o2
o2
o2
o2
o2
n8.47
v1
v1
v1
v1
v3
o2
o2
o2
o2
o2
n0.25
v1
v1
v1
v1
v4
o2
o2
o2
o2
o2
n4.69
v1
v1
v1
v3
v5
o2
o2
o2
o2
o2
n0.1
v1
v1
v1
v5
v7
o2
o2
o2
o2
o2
n1.22
v1
v1
v1
v6
v7
o2
o2
o2
o2
o2
n1.56
v1
v1
v2
v2
v5
o16
o2
o2
o2
o2
o2
n3.11
v1
v1
v2
v4
v4
o2
o2
o2
o2
o2
n0.59
v1
v1
v2
v4
v7
o2
o2
o2
o2
o2
n9.16
v1
v1
v3
v3
v4
o2
o2
o2
o2
o2
n1.62
v1
v1
v3
v4
v5
o2
o2
o2
o2
o2
n4.79
v1
v1
v3
v4
v6
o2
o2
o2
o2
o2
n5.5
v1
v1
v3
v5
v7
o2
o2
o2
o2
o2
n6.92
v1
v1
v3
v7
v7
o2
o2
o2
o2
o2
n6.07
v1
v1
v5
v5
v7
o2
o2
o2
o2
o2
n4.94
v1
v2
v2
v2
v3
o2
o2
o2
o2
o2
n1.67
v1
v3
v3
v4
v6
o2
o2
o2
o2
o2
n6.94
v1
v4
v4
v5
v5
o2
o2
o2
o2
o2
n3.21
v1
v4
v4
v5
v7
o2
o2
o2
o2
o2
n5.08
v1
v4
v5
v5
v5
o2
o2
o2
o2
o2
n5.45
v1
v6
v6
v7
v7
o2
o2
o2
o2
o2
n9.34
v1
v6
v7
v7
v7
o2
o2
o2
o2
o2
n2.91
v2
v2
v2
v2
v3
o2
o2
o2
o2
o2
n3.57
v2
v2
v3
v3
v3
o2
o2
o2
o2
o2
n7.17
v2
v2
v4
v4
v7
o2
o2
o2
o2
o2
n3.04
v2
v2
v5
v6
v7
o2
o2
o2
o2
o2
n6.84
v2
v3
v3
v3
v4
o2
o2
o2
o2
o2
n7.38
v2
v3
v3
v3
v5
o2
o2
o2
o2
o2
n7.06
v2
v4
v4
v4
v7
o2
o2
o2
o2
o2
n8.17
v2
v4
v4
v5
v7
o2
o2
o2
o2
o2
n9.9
v2
v4
v5
v5
v5
o2
o2
o2
o2
o2
n5.07
v2
v5
v5
v7
v7
o2
o2
o2
o2
o2
n2.26
v2
v6
v6
v6
v7
o2
o2
o2
o2
o2
n9.67
v3
v3
v3
v5
v7
o2
o2
o2
o2
o2
n2.92
v3
v3
v4
v5
v6
o2
o2
o2
o2
o2
n1.06
v3
v4
v4
v4
v4
o2
o2
o2
o2
o2
n5.15
v3
v4
v4
v4
v6
o2
o2
o2
o2
o2
n2.2
v3
v4
v4
v6
v7
o2
o2
o2
o2
o2
n6.6
v3
v4
v5
v5
v6
o2
o2
o2
o2
o2
n1.15
v3
v4
v6
v6
v7
o2
o2
o2
o2
o2
n2.92
v4
v4
v4
v5
v5
o2
o2
o2
o2
o2
n6.24
v4
v4
v5
v5
v6
o2
o2
o2
o2
o2
n6.72
v4
v4
v5
v5
v7
o2
o2
o2
o2
o2
n9.24
v4
v5
v5
v5
v7
o2
o2
o2
o2
o2
n8.42
v4
v5
v6
v7
v7
o2
o2
o2
o2
o2
n5.52
v4
v7
v7
v7
v7
o2
o2
o2
o2
o2
n0.57
v5
v5
v6
v7
v7
o2
o2
o2
o2
o2
n5.39
v5
v6
v6
v6
v6
o2
o2
o2
o2
o2
n2.18
v5
v6
v7
v7
v7
o2
o2
o2
o2
o2
n5.6
v7
v7
v7
v7
v7
C4
n0
C5
n0
C6
n0
C7
n0
C8
n0
O0 0
o54
127
o2
o2
n1.01
v1
v5
o2
o2
n0.03
v3
v3
o2
o2
o2
n6.53
v0
v0
v2
o2
o2
o2
n6.78
v0
v1
v7
o2
o2
o2
n5
v0
v3
v3
o16
o2
o2
o2
n0.46
v0
v6
v7
o2
o2
o2
n0.67
v1
v1
v3
o2
o2
o2
n2.12
v1
v1
v4
o2
o2
o2
n8.11
v1
v6
v6
o2
o2
o2
n1.62
v2
v2
v6
o2
o2
o2
n3.64
v2
v4
v4
o2
o2
o2
n2.46
v3
v3
v5
o2
o2
o2
n0.67
v3
v3
v7
o2
o2
o2
n3.28
v3
v4
v5
o2
o2
o2
n5.9
v3
v5
v5
o2
o2
o2
n5.14
v3
v7
v7
o2
o2
o2
n7.54
v4
v5
v7
o2
o2
o2
n8.74
v4
v7
v7
o2
o2
o2
n2.42
v7
v7
v7
o2
o2
o2
o2
n0.51
v0
v0
v6
v6
o2
o2
o2
o2
n3.35
v0
v1
v5
v6
o16
o2
o2
o2
o2
n1.66
v0
v2
v2
v7
o16
o2
o2
o2
o2
n3.47
v0
v2
v6
v6
o2
o2
o2
o2
n9.35
v0
v3
v3
v4
o2
o2
o2
o2
n8.95
v0
v3
v3
v7
o2
o2
o2
o2
n3.97
v0
v3
v5
v5
o2
o2
o2
o2
n6.75
v0
v4
v5
v5
o16
o2
o2
o2
o2
n1.5
v0
v5
v5
v5
o2
o2
o2
o2
n9.05
v0
v5
v6
v6
o2
o2
o2
o2
n5.23
v1
v1
v4
v6
o2
o2
o2
o2
n0.65
v1
v2
v2
v5
o2
o2
o2
o2
n5.7
v1
v3
v3
v5
o2
o2
o2
o2
n1.23
v1
v3
v6
v6
o2
o2
o2
o2
n3.04
v1
v3
v7
v7
o2
o2
o2
o2
n8.83
v2
v3
v4
v7
o2
o2
o2
o2
n0.75
v2
v3
v7
v7
o2
o2
o2
o2
n6.11
v2
v4
v4
v4
o2
o2
o2
o2
n4.89
v2
v6
v7
v7
o2
o2
o2
o2
n6.09
v3
v3
v3
v5
o2
o2
o2
o2
n7.91
v3
v3
v3
v6
o2
o2
o2
o2
n8.79
v3
v4
v4
v4
o2
o2
o2
o2
n1.08
v3
v4
v6
v6
o2
o2
o2
o2
n5.39
v4
v5
v5
v6
o2
o2
o2
o2
n4.51
v4
v5
v6
v7
o2
o2
o2
o2
n1.53
v4
v5
v7
v7
o2
o2
o2
o2
n9.05
v4
v6
v6
v6
o2
o2
o2
o2
n6.18
v5
v5
v5
v5
o2
o2
o2
o2
o2
n8.84
v0
v0
v0
v3
v5
o2
o2
o2
o2
o2
n7.74
v0
v0
v0
v6
v7
o2
o2
o2
o2
o2
n8.85
v0
v0
v1
v1
v1
o2
o2
o2
o2
o2
n3.97
v0
v0
v1
v1
v3
o16
o2
o2
o2
o2
o2
n6.26
v0
v0
v1
v3
v5
o2
o2
o2
o2
o2
n7.14
v0
v0
v2
v2
v2
o2
o2
o2
o2
o2
n9.9
v0
v0
v2
v2
v7
o2
o2
o2
o2
o2
n1.18
v0
v0
v2
v3
v7
o2
o2
o2
o2
o2
n6.64
v0
v0
v2
v4
v6
o2
o2
o2
o2
o2
n2.21
v0
v0
v3
v4
v7
o2
o2
o2
o2
o2
n9.01
v0
v0
v3
v6
v7
o2
o2
o2
o2
o2
n9.16
v0
v0
v4
v5
v6
o2
o2
o2
o2
o2
n2.92
v0
v1
v1
v2
v3
o2
o2
o2
o2
o2
n5.9
v0
v1
v1
v2
v5
o2
o2
o2
o2
o2
n9.64
v0
v1
v2
v6
v7
o2
o2
o2
o2
o2
n1.55
v0
v1
v2
v7
v7
o2
o2
o2
o2
o2
n1.06
v0
v1
v3
v5
v6
o2
o2
o2
o2
o2
n0.54
v0
v1
v3
v7
v7
o2
o2
o2
o2
o2
n2.38
v0
v1
v4
v5
v7
o2
o2
o2
o2
o2
n8.84
v0
v1
v5
v6
v6
o2
o2
o2
o2
o2
n1.12
v0
v1
v5
v6
v7
o2
o2
o2
o2
o2
n8.11
v0
v1
v7
v7
v7
o2
o2
o2
o2
o2
n6.74
v0
v2
v2
v5
v6
o2
o2
o2
o2
o2
n4.19
v0
v2
v3
v7
v7
o2
o2
o2
o2
o2
n9.68
v0
v2
v4
v6
v7
o2
o2
o2
o2
o2
n1.58
v0
v3
v3
v4
v4
o2
o2
o2
o2
o2
n4.15
v0
v3
v5
v6
v7
o2
o2
o2
o2
o2
n0.47
v0
v3
v7
v7
v7
o2
o2
o2
o2
o2
n3.46
v0
v4
v4
v7
v7
o2
o2
o2
o2
o2
n7.71
v0
v5
v6
v6
v6
o2
o2
o2
o2
o2
n2.2
v0
v5
v6
v7
v7
o2
o2
o2
o2
o2
n8.64
v0
v6
v6
v6
v7
o16
o2
o2
o2
o2
o2
n4.17
v1
v1
v1
v1
v3
o2
o2
o2
o2
o2
n0.91
v1
v1
v1
v1
v4
o2
o2
o2
o2
o2
n0.17
v1
v1
v1
v3
v5
o2
o2
o2
o2
o2
n7.27
v1
v1
v1
v5
v7
o16
o2
o2
o2
o2
o2
n4.72
v1
v1
v1
v6
v7
o2
o2
o2
o2
o2
n8.5
v1
v1
v2
v2
v5
o2
o2
o2
o2
o2
n5.78
v1
v1
v2
v4
v4
o2
o2
o2
o2
o2
n3.39
v1
v1
v2
v4
v7
o2
o2
o2
o2
o2
n6.52
v1
v1
v3
v3
v4
o16
o2
o2
o2
o2
o2
n7.1
v1
v1
v3
v4
v5
o16
o2
o2
o2
o2
o2
n3.18
v1
v1
v3
v4
v6
o2
o2
o2
o2
o2
n4.54
v1
v1
v3
v5
v7
o2
o2
o2
o2
o2
n8.16
v1
v1
v3
v7
v7
o2
o2
o2
o2
o2
n0.37
v1
v1
v5
v5
v7
o16
o2
o2
o2
o2
o2
n2.26
v1
v2
v2
v2
v3
o2
o2
o2
o2
o2
n2.11
v1
v3
v3
v4
v6
o2
o2
o2
o2
o2
n5.29
v1
v4
v4
v5
v5
o16
o2
o2
o2
o2
o2
n7.95
v1
v4
v4
v5
v7
o2
o2
o2
o2
o2
n9.07
v1
v4
v5
v5
v5
o2
o2
o2
o2
o2
n5.88
v1
v6
v6
v7
v7
o2
o2
o2
o2
o2
n1.74
v1
v6
v7
v7
v7
o16
o2
o2
o2
o2
o2
n5.61
v2
v2
v2
v2
v3
o2
o2
o2
o2
o2
n7.68
v2
v2
v3
v3
v3
o2
o2
o2
o2
o2
n9.88
v2
v2
v4
v4
v7
o2
o2
o2
o2
o2
n1.91
v2
v2
v5
v6
v7
o2
o2
o2
o2
o2
n6.76
v2
v3
v3
v3
v4
o2
o2
o2
o2
o2
n3.12
v2
v3
v3
v3
v5
o2
o2
o2
o2
o2
n9.43
v2
v4
v4
v4
v7
o2
o2
o2
o2
o2
n4.39
v2
v4
v4
v5
v7
o2
o2
o2
o2
o2
n5.09
v2
v4
v5
v5
v5
o16
o2
o2
o2
o2
o2
n5.64
v2
v5
v5
v7
v7
o2
o2
o2
o2
o2
n9.46
v2
v6
v6
v6
v7
o2
o2
o2
o2
o2
n6.86
v3
v3
v3
v5
v7
o16
o2
o2
o2
o2
o2
n8.55
v3
v3
v4
v5
v6
o2
o2
o2
o2
o2
n6.25
v3
v4
v4
v4
v4
o2
o2
o2
o2
o2
n4.12
v3
v4
v4
v4
v6
o2
o2
o2
o2
o2
n2.22
v3
v4
v4
v6
v7
o2
o2
o2
o2
o2
n4.55
v3
v4
v5
v5
v6
o16
o2
o2
o2
o2
o2
n3.45
v3
v4
v6
v6
v7
o2
o2
o2
o2
o2
n7.55
v4
v4
v4
v5
v5
o2
o2
o2
o2
o2
n5.96
v4
v4
v5
v5
v6
o2
o2
o2
o2
o2
n6.36
v4
v4
v5
v5
v7
o2
o2
o2
o2
o2
n1.27
v4
v5
v5
v5
v7
o16
o2
o2
o2
o2
o2
n5.97
v4
v5
v6
v7
v7
o2
o2
o2
o2
o2
n4.81
v4
v7
v7
v7
v7
o2
o2
o2
o2
o2
n0.86
v5
v5
v6
v7
v7
o2
o2
o2
o2
o2
n8.49
v5
v6
v6
v6
v6
o2
o2
o2
o2
v5
v6
v7
v7
v7
k7
9
18
27
36
45
54
63
J0 8
0 2.95
1 -1.9
2 -2.17
3 4.23
4 7.18
5 8
6 9.65
7 0.35
J1 8
0 5.59
1 -8.66
2 8.26
3 0.58
4 2.51
5 9.82
6 1.26
7 8.71
J2 8
0 2.81
1 8.82
2 2.27
3 1.49
4 9.18
5 2.5
6 -3.23
7 7.72
J3 8
0 8.7
1 0.2
2 -0.14
3 -3.98
4 8.07
5 0.06
6 3.14
7 9.89
J4 8
0 4.29
1 -8.25
2 4.06
3 2.02
4 0.71
5 1.12
6 7.17
7 2.55
J5 8
0 1.59
1 0.11
2 8.99
3 1.21
4 -6.94
5 9.52
6 5.1
7 9.51
J6 8
0 -2.9
1 0.02
2 4.34
3 2.78
4 2.19
5 9.92
6 8.84
7 2.87
J7 8
0 7.99
1 7.03
2 8.42
3 7.75
4 9.95
5 4.04
6 8.45
7 1.27
J8 8
0 8.32
1 3.34
2 9.19
3 7.47
4 7.17
5 3.86
6 1.13
7 -6.41
G0 8
0 9.55
1 8.28
2 9.25
3 1.3
4 -6.45
5 8.61
6 5.7
7 -5.98
